(set-logic ALL)
(declare-fun var0 () String)
(assert (str.in_re var0 (re.++ (re.union (re.union (re.* (re.union (re.union (re.+ (re.union (str.to_re "00") (str.to_re "1"))) (re.+ (re.* (str.to_re "22")))) (re.union (re.* (re.* (str.to_re "3"))) (re.* (re.* (str.to_re "444")))))) (re.* (re.+ (re.* (re.union (re.+ (str.to_re "55")) (re.+ (str.to_re "66"))))))) (re.union (re.+ (re.* (re.* (re.* (re.union (str.to_re "777") (str.to_re "8")))))) (re.+ (re.* (re.union (re.union (re.union (str.to_re "99") (str.to_re "aa")) (re.union (str.to_re "bbb") (str.to_re "ccc"))) (re.union (re.+ (str.to_re "dd")) (re.+ (str.to_re "e")))))))) (re.union (re.union (re.+ (re.* (re.union (re.* (re.union (str.to_re "ff") (str.to_re "g"))) (re.* (re.union (str.to_re "hh") (str.to_re "ii")))))) (re.+ (re.+ (re.+ (re.union (re.+ (str.to_re "jjj")) (re.+ (str.to_re "k"))))))) (re.union (re.union (re.+ (re.+ (re.* (re.+ (str.to_re "lll"))))) (re.+ (re.union (re.* (re.+ (str.to_re "m"))) (re.* (re.* (str.to_re "nnn")))))) (re.union (re.* (re.* (re.union (re.* (str.to_re "o")) (re.* (str.to_re "p"))))) (re.* (re.* (re.* (re.union (str.to_re "qq") (str.to_re "rrr")))))))))))
(assert (<= 15 (str.len var0)))
(check-sat)